# Node Net
2456   1
2489   1
 34   1
 43   1
 46   2
2493   2
2497   2
500   2
1600   3
450   3
1901   3
551   4
501   4
100   4
1101   5
1151   5
 41   5
 24   6
1401   6
 39   6
350   7
 45   7
1801   7
  7   8
2400   8
1301   8
750   9
 28   9
 26   9
  2  10
 21  10
 44  10
2401  11
 17  11
2251  12
2450  12
